32      4       
18      14      17      20      
0       0       0       0       0       1       2       
10      1       1       1       1       1       3       
2       1       2       1       1       1       4       
8       3       1       1       1       2       5       8       
1       6       1       4       1       1       6       
10      1       1       1       1       1       7       
5       1       1       5       1       1       9       
1       1       6       1       1       1       9       
9       1       1       1       1       2       10      15      
8       1       1       1       1       1       11      
4       1       3       1       15      2       12      25      
3       5       1       1       1       1       13      
3       1       1       1       1       1       14      
5       1       1       1       1       1       16      
1       6       1       1       5       1       16      
9       1       1       1       3       1       17      
3       1       1       5       3       2       18      23      
1       1       3       1       1       2       19      20      
9       1       1       1       1       1       21      
6       1       1       1       1       1       21      
9       1       1       1       1       1       22      
7       1       1       2       1       1       24      
5       1       1       4       3       1       24      
5       1       1       1       1       2       26      27      
8       1       3       1       7       2       26      27      
9       9       1       1       1       1       28      
3       1       1       2       1       1       28      
6       1       1       1       1       1       29      
4       1       1       1       1       1       30      
7       1       1       6       1       1       31      
5       1       1       1       1       1       32      
0       0       0       0       0       0       
